objective value:                                   -3
t_n_7                                               1 	(obj:-1)
t_n_1893                                            1 	(obj:-1)
t_n_1944                                            1 	(obj:-1)
